(set-logic QF_S)
(set-option :strings-exp true)
(set-option :produce-models true)
(declare-fun sigmaStar_0 () String)
(declare-fun sigmaStar_1 () String)
(declare-fun sigmaStar_2 () String)
(declare-fun literal_3 () String)
(declare-fun x_4 () String)
(assert (= literal_3 "\x61\x74\x74\x61\x63\x68\x6d\x65\x6e\x74\x73\x2f"))
(assert (= x_4 (str.++ literal_3 sigmaStar_2)))
(assert (str.in.re x_4 (re.++ (re.* re.allchar) (re.++ (str.to.re "\x2f\x65\x76\x69\x6c") (re.* re.allchar)))))
(check-sat)
(get-model)
